NAME          BLANK   
ROWS
 N  OBJROW
 L  R0000000
COLUMNS
    C0000000  OBJROW     -198.         R0000000  714.        
    C0000001  OBJROW     -316.         R0000000  57.         
    C0000002  OBJROW     -406.         R0000000  384.        
    C0000003  OBJROW     -748.         R0000000  499.        
    C0000004  OBJROW     -598.         R0000000  782.        
    C0000005  OBJROW     -829.         R0000000  133.        
    C0000006  OBJROW     -404.         R0000000  924.        
    C0000007  OBJROW     -79.          R0000000  615.        
    C0000008  OBJROW     -914.         R0000000  250.        
    C0000009  OBJROW     -232.         R0000000  288.        
    C0000010  OBJROW     -722.         R0000000  707.        
    C0000011  OBJROW     -520.         R0000000  544.        
    C0000012  OBJROW     -667.         R0000000  545.        
    C0000013  OBJROW     -454.         R0000000  746.        
    C0000014  OBJROW     -461.         R0000000  495.        
    C0000015  OBJROW     -822.         R0000000  147.        
    C0000016  OBJROW     -997.         R0000000  15.         
    C0000017  OBJROW     -876.         R0000000  923.        
    C0000018  OBJROW     -86.          R0000000  768.        
    C0000019  OBJROW     -645.         R0000000  955.        
RHS
    RHS       R0000000  5245.       
BOUNDS
 BV BOUND     C0000000  1.          
 BV BOUND     C0000001  1.          
 BV BOUND     C0000002  1.          
 BV BOUND     C0000003  1.          
 BV BOUND     C0000004  1.          
 BV BOUND     C0000005  1.          
 BV BOUND     C0000006  1.          
 BV BOUND     C0000007  1.          
 BV BOUND     C0000008  1.          
 BV BOUND     C0000009  1.          
 BV BOUND     C0000010  1.          
 BV BOUND     C0000011  1.          
 BV BOUND     C0000012  1.          
 BV BOUND     C0000013  1.          
 BV BOUND     C0000014  1.          
 BV BOUND     C0000015  1.          
 BV BOUND     C0000016  1.          
 BV BOUND     C0000017  1.          
 BV BOUND     C0000018  1.          
 BV BOUND     C0000019  1.          
ENDATA
